c ---- [ banner ] ------------------------------------------------------------
c
c Kissat SAT Solver
c 
c Copyright (c) 2021-2023 Armin Biere University of Freiburg
c Copyright (c) 2019-2021 Armin Biere Johannes Kepler University Linz
c 
c Version 3.1.1 unknown
c gcc (Ubuntu 9.4.0-1ubuntu1~20.04.2) 9.4.0 -W -Wall -O3 -DNDEBUG
c Mon Feb 26 18:18:52 CET 2024 Linux OptiPlex-7080 5.15.0-88-generic x86_64
c
c ---- [ parsing ] -----------------------------------------------------------
c
c opened and reading DIMACS file:
c
c   /home/oliveras/SAT-comp-2023//da43a3ef0ef5d34143e765d480dedc7a-DivU_624_11.cnf.sanitized.cnf
c
c parsed 'p cnf 624 612150' header
c closing input after reading 30247680 bytes (29 MB)
c finished parsing after 0.39 seconds
c
c ---- [ options ] -----------------------------------------------------------
c
c --seed=1                         (different from default '0')
c
c ---- [ solving ] -----------------------------------------------------------
c
c  seconds switched conflicts  irredundant variables
c         MB reductions redundant      trail   remaining
c          level restarts   binary        glue
c
c *  0.39 57 0 0 0  0   0   0   0 612150 0% 0 624 100%
c {  0.39 57 0 0 0  0   0   0   0 612150 0% 0 624 100%
c -  0.57 72 300 0 1  6 1002  83   0 611813 51% 12 624 100%
c }  0.57 72 300 1 1  6 1002  83   0 611813 51% 12 624 100%
c [  0.57 72 0 1 1  6 1002  83   0 611813 0% 0 624 100%
c B  0.57 72 0 1 1  6 1002  83   0 611813 0% 0 624 100%
c -  0.64 72 265 1 2  6 2006 107   0 611492 46% 12 624 100%
c W  0.73 86 265 1 2  6 2006 107   0 611492 46% 12 624 100%
c ]  0.81 68 251 2 2  6 2880 309   0 611181 44% 11 624 100%
c {  0.81 68 300 2 2  6 2880 309   0 611181 51% 12 624 100%
c v  1.01 70 277 2 2  6 3348 411   0 611014 47% 12 624 100%
c -  1.65 70 272 2 3  6 3425 120   0 610982 46% 12 624 100%
c }  1.69 74 265 3 3  6 3882 238   0 610814 45% 11 624 100%
c [  1.69 74 251 3 3  6 3882 238   0 610814 44% 11 624 100%
c I  1.73 76 244 3 3  6 4269 362   0 610694 42% 11 624 100%
c -  1.83 82 246 3 4  6 5165 184   0 610411 43% 12 624 100%
c ]  1.83 82 246 4 4  6 5166 185   0 610411 43% 12 624 100%
c {  1.83 82 265 4 4  6 5166 185   0 610411 45% 11 624 100%
c v  2.16 80 261 4 4 33 6696 579   0 609866 45% 11 624 100%
c -  2.81 72 266 4 5 33 7171 200   0 609698 45% 11 624 100%
c
c  seconds   switched conflicts   irredundant   variables
c         MB  reductions  redundant        trail    remaining
c           level restarts     binary          glue
c
c }  2.87 76 264 5 5 45 7523 312   0 609589 45% 11 624 100%
c [  2.87 76 246 5 5 45 7523 312   0 609589 43% 12 624 100%
c B  2.93 78 237 5 5 45 8040 441   0 609432 41% 11 624 100%
c -  3.04 84 231 5 6 45 9407 234   0 608991 40% 11 624 100%
c -  3.20 74 221 5 7 46 11861 269   0 608166 39% 11 624 100%
c ]  3.21 74 221 6 7 46 11906 284   0 608148 39% 11 624 100%
c {  3.21 74 264 6 7 46 11906 284   0 608148 45% 11 624 100%
c v  3.51 80 252 6 7 46 13657 790   0 607568 43% 11 624 100%
c -  4.20 74 246 6 8 51 14507 316   0 607294 42% 11 624 100%
c }  4.29 78 240 7 8 51 15976 728   0 606843 42% 11 624 100%
c [  4.29 78 221 7 8 51 15976 728   0 606843 39% 11 624 100%
c W  4.39 101 221 7 8 51 15976 728   0 606843 39% 11 624 100%
c s  4.57 75 222 7 8 51 16743 919   0 605886 39% 11 624 100%
c s  4.79 97 222 7 8 51 16743 919   0 600477 39% 11 624 100%
c ^  4.91 97 222 7 8 51 16743 919   0 600477 39% 11 624 100%
c -  4.99 73 219 7 9 51 17339 365   0 600274 38% 11 624 100%
c -  5.17 79 218 7 10 52 20339 422   0 599342 38% 11 624 100%
c ]  5.24 79 216 8 10 52 21726 817   0 598925 38% 11 624 100%
c {  5.24 79 240 8 10 52 21726 817   0 598925 42% 11 624 100%
c -  5.48 75 240 8 11 91 23503 412   0 598321 42% 11 624 100%
c
c  seconds   switched  conflicts    irredundant   variables
c         MB   reductions   redundant        trail    remaining
c           level  restarts      binary          glue
c
c v  5.77 80 243 8 11 99 24464 728   0 598012 42% 11 624 100%
c -  6.67 73 244 8 12 99 26819 441   0 597229 42% 11 624 100%
c }  6.80 81 245 9 12 111 27894 749   0 596859 42% 11 624 100%
c [  6.81 81 216 9 12 111 27894 749   0 596859 38% 11 624 100%
c O  6.81 81 216 9 12 111 27894 749   0 596859 38% 11 624 100%
c -  6.98 87 221 9 13 111 30286 442   0 596117 39% 11 624 100%
c s  7.27 77 217 9 13 112 33439 1311   0 591207 38% 11 624 100%
c s  7.49 95 217 9 13 112 33439 1311   0 588283 38% 11 624 100%
c ^  7.61 95 217 9 13 112 33439 1311   0 588283 38% 11 624 100%
c -  7.68 73 215 9 14 112 33895 484   0 588140 38% 11 624 100%
c -  7.91 81 210 9 15 113 37640 605   3 587045 37% 10 624 100%
c B  7.91 81 210 9 15 113 37655 607   3 587041 37% 10 624 100%
c i  7.92 81 210 9 15 113 37691 617   3 587030 37% 10 623 100%
c ]  8.04 85 213 10 15 113 39280 1174   3 586580 38% 11 623 100%
c {  8.04 85 245 10 15 113 39280 1174   3 586580 42% 11 623 100%
c v  8.24 85 245 10 15 113 39313 1110   3 581323 42% 11 623 100%
c =  8.79 101 245 10 15 113 39313 1110   3 581173 42% 11 620 99%
c -  9.18 77 245 10 16 136 41513 569   0 565676 42% 11 620 99%
c -  9.70 71 246 10 17 176 45514 564   0 564378 42% 11 620 99%
c } 10.03 71 247 11 17 239 47908 1215   0 563512 43% 11 620 99%
c
c  seconds    switched   conflicts     irredundant   variables
c         MB    reductions    redundant         trail    remaining
c           level   restarts        binary          glue
c
c [ 10.03 71 213 11 17 239 47908 1215   0 563512 38% 11 620 99%
c - 10.15 75 215 11 18 239 49637 580   0 563014 38% 11 620 99%
c W 10.25 93 215 11 18 239 49878 655   0 562939 38% 11 620 99%
c - 10.51 79 211 11 19 240 53885 556   0 561551 38% 10 620 99%
c - 10.74 82 208 11 20 241 58246 678   1 560171 37% 10 620 99%
c u 10.83 82 208 11 20 241 58278 689   3 560166 37% 10 620 99%
c v 10.94 85 208 11 20 241 58278 670  22 560166 37% 10 620 99%
c t 11.53 99 208 11 20 241 58278 670   1 560166 37% 10 620 99%
c - 11.86 85 206 11 21 242 62719 825   1 558797 37% 10 620 99%
c I 11.98 75 205 11 21 242 64782 1493   1 558210 37% 10 620 99%
c ] 12.07 79 205 12 21 243 65766 1759   1 557903 37% 10 620 99%
c { 12.07 79 247 12 21 243 65766 1759   1 557903 43% 11 620 99%
c - 12.26 75 246 12 22 249 67301 911   1 557408 42% 11 620 99%
c s 12.68 84 245 12 22 268 69526 1521   1 552465 42% 11 620 99%
c s 12.96 95 245 12 22 268 69526 1521   1 548161 42% 11 620 99%
c ^ 13.06 95 245 12 22 268 69526 1521   1 548161 42% 11 620 99%
c - 13.42 73 246 12 23 295 71991 822   1 547314 42% 11 620 99%
c - 13.95 81 246 12 24 338 76787 743   1 545713 43% 11 620 99%
c } 14.00 81 246 13 24 338 77249 883   1 545557 43% 11 620 99%
c [ 14.00 81 205 13 24 338 77249 883   1 545557 37% 10 620 99%
c
c  seconds    switched   conflicts     irredundant   variables
c         MB    reductions    redundant         trail    remaining
c           level   restarts        binary          glue
c
c u 14.39 77 204 13 24 339 81575 2272   9 544307 37% 10 620 99%
c v 14.52 79 204 13 24 339 81575 2262  19 544307 37% 10 620 99%
c w 14.96 89 204 13 24 339 81575 2264  19 544305 37% 10 620 99%
c t 15.08 99 204 13 24 339 81575 2264   2 544305 37% 10 620 99%
c i 15.10 71 204 13 24 339 81647 2273   4 544289 37% 10 619 99%
c - 15.11 73 204 13 25 339 81685 841   2 544279 37% 10 619 99%
c B 15.19 79 203 13 25 339 82585 1096   2 544035 37% 10 619 99%
c - 15.46 75 203 13 26 340 86685 971   2 542871 37% 10 619 99%
c - 15.73 81 201 13 27 341 91787 1050   2 541439 37% 10 619 99%
c ] 16.01 83 199 14 27 343 96962 2729   2 539993 36% 10 619 99%
c { 16.01 83 246 14 27 343 96962 2729   2 539993 43% 11 619 99%
c - 16.02 83 246 14 28 343 96983 1213   2 539984 43% 11 619 99%
c - 16.55 79 245 14 29 363 102274 1206   3 538291 42% 11 619 99%
c - 17.13 75 244 14 30 391 107660 1043   4 536552 42% 11 619 99%
c u 17.37 81 244 14 30 395 109279 1557  13 532200 42% 11 619 99%
c v 17.50 81 244 14 30 395 109279 1507  63 532200 42% 11 619 99%
c w 17.93 89 244 14 30 395 109279 1507  63 532200 42% 11 619 99%
c t 18.05 97 244 14 30 395 109279 1507   4 532200 42% 11 619 99%
c } 18.30 69 242 15 30 395 111681 2262   5 531467 42% 11 619 99%
c [ 18.30 69 199 15 30 395 111681 2262   5 531467 36% 10 619 99%
c
c  seconds    switched   conflicts      irredundant   variables
c         MB    reductions     redundant         trail    remaining
c           level   restarts         binary          glue
c
c W 18.39 89 199 15 30 395 111681 2262   5 531467 36% 10 619 99%
c - 18.50 75 199 15 31 395 113139 1148   5 531029 36% 10 619 99%
c - 18.79 81 198 15 32 397 118706 1266   5 529353 36% 10 619 99%
c - 19.07 82 197 15 33 397 124363 1388   5 527752 36% 10 619 99%
c s 19.47 75 197 15 33 398 127032 2283   5 519450 36% 10 619 99%
c s 19.81 90 197 15 33 398 127032 2283   5 515868 36% 10 619 99%
c ^ 19.90 91 197 15 33 398 127032 2283   5 515868 36% 10 619 99%
c i 20.05 75 196 15 33 399 128907 2895   8 515363 36% 10 618 99%
c - 20.13 77 195 15 34 399 130107 1473   5 515042 36% 10 618 99%
c O 20.43 79 193 15 34 400 135907 3359   5 513465 36% 10 618 99%
c - 20.44 81 193 15 35 400 135939 1741   5 513457 36% 10 618 99%
c ] 20.46 81 193 16 35 400 136240 1833   5 513362 36% 10 618 99%
c { 20.46 81 242 16 35 400 136240 1833   5 513362 42% 11 618 99%
c u 21.09 79 240 16 35 435 141545 3529  29 507536 42% 10 618 99%
c v 21.21 79 240 16 35 435 141545 3469  73 507536 42% 10 617 99%
c w 21.61 87 240 16 35 435 141545 3471  73 502898 42% 10 617 99%
c t 21.72 95 240 16 35 435 141545 3450  15 502898 42% 10 617 99%
c i 21.72 95 240 16 35 435 141545 3450  15 502898 42% 10 617 99%
c - 21.80 75 240 16 36 435 141860 1714   7 502814 42% 10 617 99%
c i 22.27 69 240 16 36 443 146837 3492  10 501390 42% 10 616 99%
c
c  seconds    switched   conflicts      irredundant   variables
c         MB    reductions     redundant         trail    remaining
c           level   restarts         binary          glue
c
c - 22.38 77 240 16 37 448 147862 1602   9 501077 42% 10 616 99%
c i 22.82 81 238 16 37 449 152706 3152  10 499594 42% 10 615 98%
c i 22.92 71 238 16 37 450 153710 3485  11 499300 42% 10 614 98%
c - 22.94 73 238 16 38 454 153945 1538   6 499231 42% 10 614 98%
c } 23.00 75 238 17 38 456 154580 1763   6 499035 42% 10 614 98%
c [ 23.00 75 193 17 38 456 154580 1763   6 499035 36% 10 614 98%
c - 23.35 73 192 17 39 457 160111 1579   8 497409 36% 10 614 98%
c B 23.53 75 191 17 39 458 163654 2657   8 496357 36% 10 614 98%
c - 23.70 79 192 17 40 458 166359 1706   8 495657 36% 10 614 98%
c - 24.04 75 191 17 41 460 172683 1877   8 493904 36% 10 614 98%
c u 24.38 77 189 17 41 461 178245 3778  62 479190 36% 10 614 98%
c v 24.52 77 189 17 41 461 178245 3652 188 479190 36% 10 614 98%
c w 24.91 85 189 17 41 461 178245 3657 188 479185 36% 10 614 98%
c t 25.02 93 189 17 41 461 178245 3657  12 479185 36% 10 614 98%
c i 25.08 73 188 17 41 462 178807 3851  14 479058 35% 10 613 98%
c - 25.11 75 188 17 42 462 179086 2078  12 478988 35% 10 613 98%
c ] 25.43 71 187 18 42 462 184835 4248  13 477568 35% 10 613 98%
c { 25.43 71 238 18 42 462 184835 4248  13 477568 42% 10 613 98%
c - 25.50 75 237 18 43 467 185569 2536  13 477385 42% 10 613 98%
c - 25.92 73 230 18 44 468 192127 2882  16 475756 41% 10 613 98%
c
c  seconds    switched   conflicts      irredundant   variables
c         MB    reductions     redundant         trail    remaining
c           level   restarts         binary          glue
c
c - 26.30 77 225 18 45 476 198760 2970  19 474185 41% 10 613 98%
c i 26.31 77 224 18 45 476 199020 3060  20 474124 41% 10 612 98%
c - 26.67 79 219 18 46 478 205472 3089  18 472576 40% 10 612 98%
c } 26.77 79 218 19 46 479 207180 3820  19 472207 40% 10 612 98%
c [ 26.77 79 187 19 46 479 207180 3820  19 472207 35% 10 612 98%
c W 26.87 89 187 19 46 479 207180 3820  19 464463 35% 10 612 98%
c s 27.25 71 187 19 46 479 207997 4125  20 454869 35% 10 612 98%
c s 27.63 84 187 19 46 479 207997 4125  20 451011 35% 10 612 98%
c ^ 27.71 85 187 19 46 479 207997 4125  20 451011 35% 10 612 98%
c i 27.89 73 186 19 46 480 210877 4992  23 450168 35% 10 611 98%
c - 27.96 75 186 19 47 480 212254 2990  20 449785 35% 10 611 98%
c i 28.16 77 185 19 47 481 216479 4539  23 448733 35% 10 610 98%
c i 28.16 77 185 19 47 481 216538 4549  25 448714 35% 10 609 97%
c i 28.17 77 185 19 47 481 216850 4657  25 448619 35% 10 608 97%
c - 28.27 77 185 19 48 481 219114 2563  18 447944 35% 9 608 97%
c u 28.38 69 185 19 48 482 219484 2572  88 431790 35% 9 607 97%
c v 28.50 69 185 19 48 482 219484 2394 214 431790 35% 9 606 97%
c w 28.86 66 185 19 48 482 219484 2399 215 423843 35% 9 606 97%
c t 28.95 85 185 19 48 482 219484 2346  52 423843 35% 9 606 97%
c i 28.95 85 185 19 48 482 219484 2346  52 423843 35% 9 606 97%
c
c  seconds    switched   conflicts      irredundant  variables
c         MB    reductions     redundant         trail   remaining
c           level   restarts         binary         glue
c
c - 29.31 69 183 19 49 484 226042 2543  19 421996 35% 9 606 97%
c - 29.63 75 181 19 50 485 233043 3031  23 420239 35% 9 606 97%
c ] 29.72 75 181 20 50 485 234845 3650  23 419794 35% 9 606 97%
c { 29.72 75 218 20 50 485 234845 3650  23 419794 40% 10 606 97%
c - 30.11 77 215 20 51 499 240114 3244  24 418378 40% 10 606 97%
c - 30.66 73 213 20 52 503 247260 3228  28 416479 40% 10 606 97%
c i 30.73 75 213 20 52 505 248091 3548  32 416257 40% 10 605 97%
c i 30.91 71 212 20 52 509 250035 4362  34 415774 40% 10 604 97%
c i 31.05 75 212 20 52 519 251575 4922  38 415342 40% 10 603 96%
c i 31.06 75 212 20 52 519 251685 4947  38 415311 40% 10 602 96%
c - 31.30 75 211 20 53 532 254471 2978  49 414544 40% 10 602 96%
c i 31.50 69 210 20 53 534 257053 3955  50 413917 40% 10 601 96%
c } 31.84 66 209 21 53 543 261587 5654  50 412749 40% 10 601 96%
c [ 31.84 66 181 21 53 543 261587 5654  50 412749 35% 9 601 96%
c I 31.84 66 181 21 53 543 261587 5654  50 412749 35% 9 601 96%
c - 31.87 68 181 21 54 543 261753 3216  46 412714 35% 9 601 96%
c i 31.90 71 181 21 54 543 262275 3391  47 412585 35% 9 600 96%
c u 32.10 75 180 21 54 544 264807 3920 231 390913 35% 9 600 96%
c v 32.25 75 180 21 54 544 264807 3771 380 390913 35% 9 600 96%
c w 32.60 69 180 21 54 544 264807 3775 384 390905 35% 9 600 96%
c
c  seconds    switched   conflicts      irredundant  variables
c         MB    reductions     redundant         trail   remaining
c           level   restarts         binary         glue
c
c t 32.68 81 180 21 54 544 264807 3775  40 390905 35% 9 600 96%
c - 32.93 65 178 21 55 545 269104 3150  40 389842 35% 9 600 96%
c i 33.14 71 177 21 55 546 273440 4756  45 388779 35% 9 599 96%
c i 33.25 73 176 21 55 547 275755 5597  50 388220 35% 9 597 96%
c - 33.29 73 176 21 56 547 276521 3293  60 388046 34% 9 597 96%
c i 33.29 73 176 21 56 547 276597 3316  60 388019 34% 9 596 95%
c i 33.31 73 175 21 56 547 276961 3408  63 387911 34% 9 595 95%
c i 33.31 73 175 21 56 547 276979 3418  63 387911 34% 9 594 95%
c i 33.39 75 175 21 56 548 278761 4072  67 387455 34% 9 592 95%
c - 33.65 69 173 21 57 548 284013 3288  54 386083 34% 9 592 95%
c i 33.66 69 173 21 57 549 284213 3351  57 386030 34% 9 591 95%
c i 33.75 71 172 21 57 549 286126 4103  58 385576 34% 9 590 94%
c - 34.00 73 170 21 58 549 291562 3745  54 384275 34% 9 590 94%
c i 34.05 73 169 21 58 549 292655 4136  56 384011 34% 9 589 94%
c i 34.20 73 168 21 58 550 295933 5419  59 383257 34% 9 588 94%
c i 34.20 73 168 21 58 550 296062 5458  62 383219 34% 9 587 94%
c i 34.20 73 168 21 58 550 296085 5466  62 383218 34% 9 586 94%
c i 34.20 73 168 21 58 550 296096 5466  64 383218 34% 9 585 94%
c i 34.26 73 167 21 58 551 297275 5962  67 382968 34% 9 584 93%
c - 34.36 73 166 21 59 551 299179 3725 112 382552 34% 9 584 93%
c
c  seconds    switched   conflicts      irredundant  variables
c         MB    reductions     redundant         trail   remaining
c           level   restarts         binary         glue
c
c i 34.38 65 166 21 59 552 299647 3905 113 382447 34% 9 583 93%
c i 34.38 65 166 21 59 552 299648 3905 113 382447 34% 9 582 93%
c i 34.39 65 166 21 59 552 299785 3965 115 382418 34% 9 581 93%
c i 34.39 65 166 21 59 552 299841 3982 118 382403 34% 9 580 93%
c i 34.39 65 166 21 59 552 299850 3981 118 382401 34% 9 579 93%
c B 34.45 66 166 21 59 552 301036 4369 120 382087 34% 9 579 93%
c ] 34.47 67 166 22 59 552 301236 4458 121 382059 34% 9 579 93%
c { 34.47 67 209 22 59 552 301236 4458 121 382059 40% 10 579 93%
c i 34.55 69 208 22 59 555 302610 4989 126 381740 40% 9 578 92%
c i 34.56 69 208 22 59 555 302648 4996 128 381736 40% 9 577 92%
c i 34.56 69 208 22 59 555 302665 5003 129 381735 40% 9 576 92%
c - 34.76 73 204 22 60 555 306863 3877 147 380717 39% 9 576 92%
c i 34.79 73 203 22 60 555 307575 4186 148 380574 39% 9 574 92%
c i 34.80 73 203 22 60 555 307628 4212 148 380566 39% 9 573 92%
c i 34.80 73 203 22 60 555 307714 4239 153 380549 39% 9 572 92%
c i 34.80 73 203 22 60 555 307717 4239 155 380549 39% 9 571 91%
c i 34.81 73 203 22 60 555 307826 4280 158 380521 39% 9 567 91%
c i 34.94 65 200 22 60 556 310426 5328 169 379920 39% 9 566 91%
c 2 35.06 66 198 22 60 556 312987 6341 102 379311 39% 9 566 91%
c s 35.42 67 198 22 60 556 312987 6341 103 263833 39% 9 566 91%
c
c  seconds    switched   conflicts      irredundant  variables
c         MB    reductions     redundant         trail   remaining
c           level   restarts         binary         glue
c
c s 35.82 50 198 22 60 556 312987 6341  69 257954 39% 9 566 91%
c ! 35.86 50 198 22 60 556 312987 6341  69 257954 39% 9 566 91%
c i 35.90 38 197 22 60 556 313493 5880  71 257855 39% 9 564 90%
c i 35.94 40 197 22 60 556 314190 6169  73 257697 39% 9 563 90%
c u 36.00 40 197 22 60 556 314406 5721 291 250773 39% 9 558 89%
c v 36.15 40 197 22 60 556 314406 4662 1141 250773 39% 9 557 89%
c w 36.38 40 197 22 60 556 314406 4687 1206 238497 39% 9 557 89%
c t 36.43 48 197 22 60 556 314406 4651 133 238497 39% 9 557 89%
c i 36.43 48 197 22 60 556 314406 4651 133 238497 39% 9 557 89%
c - 36.48 38 196 22 61 556 314611 3169  75 238455 39% 9 557 89%
c i 36.49 38 196 22 61 556 314690 3188  76 238434 39% 9 556 89%
c i 36.56 42 195 22 61 556 316026 3719  79 238105 38% 9 555 89%
c i 36.57 42 195 22 61 556 316033 3722  79 238104 38% 9 554 89%
c i 36.58 42 195 22 61 556 316203 3788  83 238072 38% 9 552 88%
c i 36.59 42 194 22 61 556 316491 3910  84 238016 38% 9 551 88%
c i 36.59 42 194 22 61 556 316494 3910  85 238016 38% 9 550 88%
c i 36.61 35 194 22 61 556 316800 4010  87 237930 38% 9 548 88%
c i 36.64 38 193 22 61 556 317483 4259  94 237793 38% 9 547 88%
c i 36.65 38 193 22 61 556 317511 4268  95 237786 38% 9 545 87%
c i 36.74 40 191 22 61 556 319661 5154 103 237300 38% 9 542 87%
c
c  seconds    switched   conflicts      irredundant  variables
c         MB    reductions     redundant         trail   remaining
c           level   restarts         binary         glue
c
c i 36.74 40 191 22 61 556 319662 5154 103 237300 38% 9 541 87%
c i 36.79 40 191 22 61 556 320580 5519 107 237076 38% 9 540 86%
c i 36.86 42 189 22 61 556 322227 6153 115 236681 38% 9 538 86%
c - 36.87 42 189 22 62 556 322422 3608  96 236631 38% 9 538 86%
c i 36.98 42 186 22 62 556 325112 4699 113 236052 38% 9 537 86%
c i 37.02 42 185 22 62 556 326246 5205 118 235791 38% 9 536 86%
c i 37.04 42 185 22 62 556 326503 5303 124 235725 38% 9 535 86%
c i 37.08 38 184 22 62 556 327430 5648 127 235483 38% 9 534 85%
c i 37.17 38 182 22 62 556 329477 6571 147 235048 37% 9 533 85%
c i 37.17 38 182 22 62 556 329479 6571 147 235047 37% 9 532 85%
c i 37.17 38 182 22 62 556 329481 6571 148 235047 37% 9 530 85%
c i 37.17 38 182 22 62 556 329498 6576 148 235045 37% 9 528 84%
c i 37.17 38 182 22 62 556 329548 6595 148 235034 37% 9 527 84%
c i 37.18 40 182 22 62 556 329568 6608 148 235032 37% 9 526 84%
c - 37.21 40 181 22 63 556 330303 3920 120 234856 37% 9 526 84%
c } 37.30 40 179 23 63 556 332753 4967 123 234295 37% 9 526 84%
c [ 37.30 40 166 23 63 556 332753 4967 123 234295 34% 9 526 84%
c i 37.33 40 165 23 63 556 333465 5260 127 234150 34% 9 524 84%
c i 37.37 40 164 23 63 556 334360 5552 138 233919 34% 9 521 83%
c i 37.41 40 164 23 63 557 335392 5953 145 233668 34% 9 520 83%
c
c  seconds    switched   conflicts      irredundant  variables
c         MB    reductions     redundant         trail   remaining
c           level   restarts         binary         glue
c
c i 37.41 40 164 23 63 557 335411 5962 146 233668 34% 9 517 83%
c i 37.42 40 163 23 63 557 335629 6032 152 233620 34% 9 515 82%
c i 37.42 40 163 23 63 557 335678 6045 156 233613 34% 9 511 82%
c i 37.42 40 163 23 63 557 335679 6045 156 233613 34% 9 510 82%
c i 37.42 40 163 23 63 557 335707 6049 156 233602 34% 9 509 81%
c i 37.44 42 163 23 63 557 336400 6305 161 233424 34% 9 508 81%
c i 37.44 42 163 23 63 557 336402 6305 161 233423 34% 9 507 81%
c i 37.47 42 162 23 63 557 337251 6588 166 233220 34% 9 506 81%
c i 37.47 42 162 23 63 557 337288 6602 166 233212 34% 9 503 80%
c i 37.47 42 162 23 63 557 337290 6602 167 233211 34% 9 502 80%
c i 37.47 42 162 23 63 557 337294 6599 168 233210 34% 9 501 80%
c - 37.53 34 162 23 64 558 338240 3648 100 135892 34% 9 501 80%
c i 37.56 35 161 23 64 558 339359 4034 112 135608 34% 9 500 80%
c i 37.57 35 161 23 64 558 339775 4186 114 135498 33% 9 499 80%
c i 37.57 35 161 23 64 558 339860 4214 116 135476 33% 9 498 80%
c i 37.57 35 161 23 64 558 339874 4215 117 135473 33% 9 497 80%
c i 37.60 35 160 23 64 558 340918 4560 125 135207 33% 9 496 79%
c i 37.60 35 160 23 64 558 340932 4561 125 135203 33% 9 495 79%
c i 37.62 35 159 23 64 558 341780 4882 140 134998 33% 9 494 79%
c i 37.63 35 159 23 64 558 341989 4948 141 134940 33% 9 489 78%
c
c  seconds    switched   conflicts      irredundant  variables
c         MB    reductions     redundant         trail   remaining
c           level   restarts         binary         glue
c
c i 37.65 34 159 23 64 558 342603 5158 146 134775 33% 9 488 78%
c i 37.66 34 158 23 64 558 342905 5279 147 134705 33% 9 487 78%
c i 37.66 34 158 23 64 558 343201 5366 149 134621 33% 9 486 78%
c i 37.67 34 158 23 64 558 343369 5431 152 134574 33% 9 485 78%
c i 37.68 34 158 23 64 559 343853 5623 159 134450 33% 9 483 77%
c i 37.68 34 158 23 64 559 343921 5643 162 134429 33% 9 482 77%
c W 37.72 35 157 23 64 559 344751 5962 107 111611 33% 9 482 77%
c i 37.72 31 157 23 64 559 344804 5974 110 111593 33% 9 481 77%
c i 37.72 31 157 23 64 559 344805 5974 110 111593 33% 9 480 77%
c i 37.74 34 156 23 64 559 345588 6231 114 111370 33% 9 477 76%
c i 37.74 34 156 23 64 559 345592 6233 114 111369 33% 9 476 76%
c i 37.75 34 156 23 64 559 346136 6403 119 111229 33% 9 475 76%
c - 37.76 34 156 23 65 559 346240 3341 138 111201 33% 9 475 76%
c i 37.80 34 155 23 65 560 348280 4056 155 110665 33% 8 473 76%
c i 37.80 34 155 23 65 560 348380 4082 155 110638 33% 8 470 75%
c i 37.81 34 154 23 65 560 348732 4192 162 110541 33% 8 469 75%
c i 37.81 34 154 23 65 560 348780 4204 163 110533 33% 8 465 74%
c i 37.81 34 154 23 65 560 349103 4303 170 110450 33% 8 463 74%
c i 37.81 34 154 23 65 560 349105 4304 170 110450 33% 8 462 74%
c i 37.81 34 154 23 65 560 349121 4305 171 110441 33% 8 461 74%
c
c  seconds    switched   conflicts      irredundant  variables
c         MB    reductions     redundant         trail   remaining
c           level   restarts         binary         glue
c
c i 37.82 34 154 23 65 561 349241 4356 175 110411 33% 8 459 73%
c i 37.82 34 154 23 65 561 349433 4421 179 110366 33% 8 453 72%
c i 37.82 34 154 23 65 561 349522 4451 180 110344 33% 8 452 72%
c i 37.84 34 153 23 65 561 350583 4819 190 110081 33% 8 451 72%
c i 37.84 34 153 23 65 561 350782 4879 194 110009 33% 8 450 72%
c i 37.89 34 151 23 65 561 353286 5866 206 109324 33% 8 449 72%
c i 37.90 34 151 23 65 561 353826 6122 217 109223 33% 8 448 72%
c i 37.90 34 151 23 65 561 353828 6123 217 109223 33% 8 447 72%
c i 37.90 34 151 23 65 561 353830 6124 217 109223 33% 8 443 71%
c i 37.90 34 150 23 65 561 354017 6209 227 109190 33% 8 442 71%
c i 37.91 34 150 23 65 562 354231 6290 231 109140 33% 8 433 69%
c i 37.91 34 150 23 65 562 354238 6293 232 109138 33% 8 427 68%
c i 37.91 34 150 23 65 562 354275 6305 235 109135 33% 8 426 68%
c i 37.91 34 150 23 65 562 354289 6312 235 109132 33% 8 425 68%
c - 37.93 22 150 23 66 562 354302 2823 175 60498 33% 8 425 68%
c ] 37.93 17 150 23 66 562 354406 2860 180 60472 33% 8 419 67%
c 0 37.93 17 179 23 66 562 354406 2860 180 60472 37% 9 419 67%
c
c ---- [ result ] ------------------------------------------------------------
c
s UNSATISFIABLE
c
c ---- [ profiling ] ---------------------------------------------------------
c
c          23.95   63.13 %  search
c          13.59   35.83 %  simplify
c          12.70   33.49 %  focused
c          11.24   29.64 %  stable
c           9.29   24.50 %  probe
c           7.03   18.54 %  vivify
c           3.82   10.06 %  eliminate
c           2.56    6.76 %  subsume
c           1.26    3.33 %  substitute
c           0.90    2.36 %  sweep
c           0.48    1.26 %  walking
c           0.39    1.03 %  parse
c           0.26    0.69 %  reduce
c           0.10    0.27 %  transitive
c           0.00    0.00 %  backbone
c           0.00    0.00 %  warmup
c =============================================
c          37.93  100.00 %  total
c
c ---- [ statistics ] --------------------------------------------------------
c
c chronological:                         3081                1 %  conflicts
c conflicts:                           354406             9343.70 per second
c decisions:                          3198983                9.03 per conflict
c jumped_reasons:                       12192                0 %  propagations
c propagations:                       4615325           121680    per second
c queue_decisions:                    1352331               42 %  decision
c random_decisions:                     68421                2 %  decision
c random_sequences:                        77             4603    interval
c reductions:                              66             5370    interval
c rephased:                                17            20847    interval
c restarts:                               562              630.62 interval
c score_decisions:                    1778231               56 %  decision
c strengthened:                        114559                0 %  checks
c subsumed:                             63804                0 %  checks
c switched:                                23            15409    interval
c vivified:                              7889               29 %  checks
c vivify_checks:                        27013             2078    per vivify
c vivify_units:                             5                1 %  variables
c walk_improved:                            6              100 %  walks
c walks:                                    6            59068    interval
c
c ---- [ resources ] ---------------------------------------------------------
c
c maximum-resident-set-size:        107532288 bytes        103 MB
c process-time:                            38s              37.93 seconds
c
c ---- [ shutting down ] -----------------------------------------------------
c
c exit 20
